<number of tasks>
89

<cycle time>
75

<task times>
1 28
2 17
3 7
4 10
5 12
6 16
7 13
8 8
9 13
10 24
11 16
12 24
13 12
14 20
15 22
16 22
17 22
18 47
19 6
20 12
21 6
22 22
23 7
24 14
25 68
26 15
27 8
28 74
29 32
30 11
31 18
32 15
33 42
34 27
35 38
36 38
37 26
38 35
39 31
40 8
41 14
42 8
43 8
44 8
45 17
46 7
47 19
48 12
49 24
50 26
51 22
52 14
53 27
54 60
55 4
56 2
57 1
58 9
59 5
60 6
61 7
62 12
63 2
64 11
65 14
66 6
67 21
68 14
69 1
70 6
71 21
72 11
73 14
74 28
75 12
76 11
77 30
78 22
79 14
80 31
81 18
82 16
83 7
84 38
85 8
86 31
87 29
88 12
89 18

<precedence relations>
1,2
2,3
3,4
4,5
4,6
4,7
4,8
4,9
5,10
6,11
7,12
8,18
9,18
10,14
11,12
12,13
13,14
14,15
14,16
15,17
16,54
17,18
18,19
18,20
19,22
20,21
20,28
21,54
22,23
23,24
24,25
25,26
25,27
25,29
26,37
27,33
28,29
29,31
30,54
31,32
32,33
33,34
34,35
35,36
35,37
36,38
37,38
38,39
39,40
39,41
39,42
39,43
40,44
41,53
42,53
43,45
44,52
45,46
46,47
47,48
47,49
49,50
50,51
51,52
52,53
53,68
53,69
53,70
53,71
54,55
55,56
56,57
57,58
57,59
57,60
57,61
57,62
57,63
57,64
57,65
57,66
58,67
59,67
60,67
61,67
62,67
63,67
64,67
65,67
66,67
67,73
68,72
69,72
70,72
71,73
72,78
72,80
73,74
74,75
74,76
75,77
76,81
77,78
78,79
79,81
80,81
81,82
81,84
81,85
82,83
83,86
84,86
85,86
86,87
87,88
87,89

<setup times forward>
1,30:3
2,30:3
3,30:3
4,5:5
4,6:5
4,8:2
4,9:2
4,30:3
5,7:5
5,8:3
5,9:7
5,10:7
5,13:7
5,30:8
6,7:5
6,8:3
6,9:7
6,10:7
6,30:8
7,5:5
7,6:5
7,8:2
7,9:2
7,10:2
7,11:5
7,12:5
7,30:3
8,5:3
8,6:3
8,7:2
8,9:4
8,10:4
8,11:3
8,12:3
8,13:4
8,14:4
8,18:1
8,30:5
9,5:7
9,6:7
9,7:2
9,8:4
9,11:7
9,12:7
9,15:4
9,16:4
9,17:4
9,18:3
9,30:1
10,6:7
10,7:2
10,8:4
10,11:7
10,12:7
10,30:1
11,7:5
11,8:3
11,9:7
11,10:7
11,30:8
12,8:3
12,9:7
12,10:7
12,13:7
12,30:8
13,5:7
13,8:4
13,30:1
14,8:4
14,15:4
14,16:4
14,30:1
15,9:4
15,30:5
16,9:4
16,18:1
16,19:1
16,20:1
16,21:1
16,22:5
16,23:5
16,24:5
16,25:2
16,26:8
16,27:1
16,28:6
16,29:1
16,30:5
16,31:1
16,32:1
16,33:4
16,34:4
16,35:3
16,37:3
16,38:2
16,39:2
16,40:8
16,41:3
16,42:3
16,43:9
16,44:8
16,45:9
16,46:9
16,47:9
16,48:1
16,49:9
16,50:8
16,51:8
16,52:3
16,53:3
16,54:8
16,68:3
16,69:3
16,70:3
16,71:3
16,72:3
16,80:1
17,9:4
17,18:1
17,30:5
18,16:1
18,30:4
19,16:1
19,22:4
19,28:5
19,30:4
19,54:7
19,55:2
19,56:2
19,57:2
19,58:3
19,59:7
19,60:4
19,61:2
19,62:1
19,63:2
19,64:1
19,65:1
19,66:7
19,67:2
20,16:1
20,22:4
20,23:4
20,24:4
20,25:1
20,26:7
20,27:2
20,28:5
20,30:4
21,16:1
21,22:4
21,23:4
21,24:4
21,25:1
21,26:7
21,27:2
21,28:5
21,29:2
21,30:4
21,31:2
21,32:2
21,33:3
21,34:3
21,35:2
21,36:1
21,37:2
21,38:3
21,39:3
21,40:7
21,41:4
21,42:4
21,43:8
21,44:7
21,45:8
21,46:8
21,47:8
21,48:2
21,49:8
21,50:7
21,51:7
21,52:4
21,53:4
21,54:7
21,68:2
21,69:2
21,70:4
21,71:2
21,72:2
22,16:5
22,20:4
22,21:4
22,28:1
22,54:3
22,55:2
22,56:2
22,57:2
22,58:7
22,59:3
22,60:8
22,61:2
22,62:5
22,63:2
22,64:5
22,65:5
22,66:3
22,67:2
23,16:5
23,20:4
23,21:4
23,28:1
23,54:3
23,55:2
23,56:2
23,57:2
23,58:7
23,59:3
23,60:8
23,61:2
23,62:5
23,63:2
23,64:5
23,65:5
23,66:3
23,67:2
24,16:5
24,20:4
24,21:4
24,25:3
24,28:1
24,54:3
24,55:2
24,56:2
24,57:2
24,58:7
24,59:3
24,60:8
24,61:2
24,62:5
24,63:2
24,64:5
24,65:5
24,66:3
24,67:2
25,16:2
25,20:1
25,21:1
25,26:6
25,27:3
25,28:4
25,29:3
25,30:3
25,54:6
25,55:1
25,56:1
25,57:1
25,58:4
25,59:6
25,60:5
25,61:1
25,62:2
25,63:1
25,64:2
25,65:2
25,66:6
25,67:1
26,16:8
26,20:7
26,21:7
26,27:9
26,28:2
26,29:9
26,30:3
26,31:9
26,32:9
26,33:4
26,34:4
26,35:5
26,36:8
26,37:5
26,55:5
26,56:5
26,57:5
26,58:10
26,60:11
26,61:5
26,62:8
26,63:5
26,64:8
26,65:8
26,67:5
27,16:1
27,20:2
27,21:2
27,26:9
27,28:7
27,30:6
27,33:5
27,54:9
27,55:4
27,56:4
27,57:4
27,58:1
27,59:9
27,60:2
27,61:4
27,62:1
27,63:4
27,64:1
27,65:1
27,66:9
27,67:4
28,16:6
28,19:5
28,21:5
28,22:1
28,23:1
28,24:1
28,25:4
28,26:2
28,27:7
28,29:7
28,30:1
28,54:2
28,55:3
28,56:3
28,57:3
28,58:8
28,59:2
28,60:9
28,61:3
28,62:6
28,63:3
28,64:6
28,65:6
28,66:2
28,67:3
29,16:1
29,21:2
29,26:9
29,30:6
29,54:9
29,55:4
29,56:4
29,57:4
29,58:1
29,59:9
29,60:2
29,61:4
29,62:1
29,63:4
29,64:1
29,65:1
29,66:9
29,67:4
30,1:3
30,2:3
30,3:3
30,4:3
30,5:8
30,6:8
30,7:3
30,8:5
30,9:1
30,10:1
30,11:8
30,12:8
30,13:1
30,14:1
30,15:5
30,16:5
30,17:5
30,18:4
30,19:4
30,20:4
30,21:4
30,25:3
30,26:3
30,27:6
30,28:1
30,29:6
30,31:6
30,32:6
30,33:1
30,34:1
30,35:2
30,36:5
30,37:2
30,38:7
30,39:7
30,40:3
30,41:8
30,42:8
30,43:4
30,44:3
30,45:4
30,46:4
30,47:4
30,48:6
30,49:4
30,50:3
30,51:3
30,52:8
30,53:8
30,54:3
30,68:2
30,69:2
30,70:8
30,71:2
30,72:2
30,80:4
31,16:1
31,21:2
31,26:9
31,30:6
31,54:9
31,55:4
31,56:4
31,57:4
31,58:1
31,59:9
31,60:2
31,61:4
31,62:1
31,63:4
31,64:1
31,65:1
31,66:9
31,67:4
32,16:1
32,21:2
32,26:9
32,30:6
32,33:5
32,54:9
32,55:4
32,56:4
32,57:4
32,58:1
32,59:9
32,60:2
32,61:4
32,62:1
32,63:4
32,64:1
32,65:1
32,66:9
32,67:4
33,16:4
33,21:3
33,26:4
33,30:1
33,54:4
33,55:1
33,56:1
33,57:1
33,58:6
33,59:4
33,60:7
33,61:1
33,62:4
33,63:1
33,64:4
33,65:4
33,66:4
33,67:1
34,16:4
34,21:3
34,26:4
34,30:1
34,35:1
34,54:4
34,55:1
34,56:1
34,57:1
34,58:6
34,59:4
34,60:7
34,61:1
34,62:4
34,63:1
34,64:4
34,65:4
34,66:4
34,67:1
35,16:3
35,21:2
35,26:5
35,30:2
35,36:3
35,54:5
35,58:5
35,59:5
35,60:6
35,62:3
35,64:3
35,65:3
35,66:5
36,21:1
36,26:8
36,30:5
36,37:3
36,38:2
36,54:8
36,55:3
36,56:3
36,57:3
36,58:2
36,59:8
36,60:3
36,61:3
36,63:3
36,66:8
36,67:3
37,16:3
37,21:2
37,30:2
37,36:3
37,38:5
37,54:5
37,58:5
37,59:5
37,60:6
37,62:3
37,64:3
37,65:3
37,66:5
38,16:2
38,21:3
38,30:7
38,54:10
38,55:5
38,56:5
38,57:5
38,59:10
38,60:1
38,61:5
38,62:2
38,63:5
38,64:2
38,65:2
38,66:10
38,67:5
39,16:2
39,21:3
39,30:7
39,40:10
39,41:1
39,42:1
39,43:11
39,54:10
39,55:5
39,56:5
39,57:5
39,59:10
39,60:1
39,61:5
39,62:2
39,63:5
39,64:2
39,65:2
39,66:10
39,67:5
40,16:8
40,21:7
40,30:3
40,41:11
40,42:11
40,43:1
40,45:1
40,46:1
40,47:1
40,48:9
40,49:1
40,55:5
40,56:5
40,57:5
40,58:10
40,60:11
40,61:5
40,62:8
40,63:5
40,64:8
40,65:8
40,67:5
41,16:3
41,21:4
41,30:8
41,40:11
41,43:12
41,44:11
41,45:12
41,46:12
41,47:12
41,48:2
41,49:12
41,50:11
41,51:11
41,54:11
41,55:6
41,56:6
41,57:6
41,58:1
41,59:11
41,61:6
41,62:3
41,63:6
41,64:3
41,65:3
41,66:11
41,67:6
42,16:3
42,21:4
42,30:8
42,40:11
42,43:12
42,44:11
42,45:12
42,46:12
42,47:12
42,48:2
42,49:12
42,50:11
42,51:11
42,54:11
42,55:6
42,56:6
42,57:6
42,58:1
42,59:11
42,61:6
42,62:3
42,63:6
42,64:3
42,65:3
42,66:11
42,67:6
43,16:9
43,21:8
43,30:4
43,40:1
43,41:12
43,42:12
43,44:1
43,54:1
43,55:6
43,56:6
43,57:6
43,58:11
43,59:1
43,60:12
43,61:6
43,62:9
43,63:6
43,64:9
43,65:9
43,66:1
43,67:6
44,16:8
44,21:7
44,30:3
44,41:11
44,42:11
44,43:1
44,45:1
44,46:1
44,47:1
44,48:9
44,49:1
44,52:11
44,55:5
44,56:5
44,57:5
44,58:10
44,60:11
44,61:5
44,62:8
44,63:5
44,64:8
44,65:8
44,67:5
45,16:9
45,21:8
45,30:4
45,40:1
45,41:12
45,42:12
45,44:1
45,54:1
45,55:6
45,56:6
45,57:6
45,58:11
45,59:1
45,60:12
45,61:6
45,62:9
45,63:6
45,64:9
45,65:9
45,66:1
45,67:6
46,16:9
46,21:8
46,30:4
46,40:1
46,41:12
46,42:12
46,44:1
46,54:1
46,55:6
46,56:6
46,57:6
46,58:11
46,59:1
46,60:12
46,61:6
46,62:9
46,63:6
46,64:9
46,65:9
46,66:1
46,67:6
47,16:9
47,21:8
47,30:4
47,40:1
47,41:12
47,42:12
47,44:1
47,48:10
47,54:1
47,55:6
47,56:6
47,57:6
47,58:11
47,59:1
47,60:12
47,61:6
47,62:9
47,63:6
47,64:9
47,65:9
47,66:1
47,67:6
48,16:1
48,21:2
48,30:6
48,40:9
48,41:2
48,42:2
48,44:9
48,49:10
48,50:9
48,51:9
48,52:2
48,53:2
48,54:9
48,55:4
48,56:4
48,57:4
48,58:1
48,59:9
48,60:2
48,61:4
48,62:1
48,63:4
48,64:1
48,65:1
48,66:9
48,67:4
48,68:4
48,69:4
48,70:2
48,71:4
48,72:4
48,73:2
48,74:2
48,75:1
48,76:1
48,77:1
48,78:1
48,79:1
48,80:2
48,81:1
48,82:1
48,83:1
48,84:7
48,85:1
48,86:7
49,16:9
49,21:8
49,30:4
49,40:1
49,41:12
49,42:12
49,44:1
49,48:10
49,50:1
49,54:1
49,55:6
49,56:6
49,57:6
49,58:11
49,59:1
49,60:12
49,61:6
49,62:9
49,63:6
49,64:9
49,65:9
49,66:1
49,67:6
50,16:8
50,21:7
50,30:3
50,41:11
50,42:11
50,48:9
50,55:5
50,56:5
50,57:5
50,58:10
50,60:11
50,61:5
50,62:8
50,63:5
50,64:8
50,65:8
50,67:5
51,16:8
51,21:7
51,30:3
51,41:11
51,42:11
51,48:9
51,52:11
51,55:5
51,56:5
51,57:5
51,58:10
51,60:11
51,61:5
51,62:8
51,63:5
51,64:8
51,65:8
51,67:5
52,16:3
52,21:4
52,30:8
52,48:2
52,54:11
52,55:6
52,56:6
52,57:6
52,58:1
52,59:11
52,61:6
52,62:3
52,63:6
52,64:3
52,65:3
52,66:11
52,67:6
53,16:3
53,21:4
53,30:8
53,48:2
53,54:11
53,55:6
53,56:6
53,57:6
53,58:1
53,59:11
53,61:6
53,62:3
53,63:6
53,64:3
53,65:3
53,66:11
53,67:6
53,68:6
53,69:6
53,71:6
54,19:7
54,22:3
54,23:3
54,24:3
54,25:6
54,27:9
54,28:2
54,29:9
54,31:9
54,32:9
54,33:4
54,34:4
54,35:5
54,36:8
54,37:5
54,38:10
54,39:10
54,41:11
54,42:11
54,43:1
54,45:1
54,46:1
54,47:1
54,48:9
54,49:1
54,52:11
54,53:11
54,55:5
54,68:5
54,69:5
54,70:11
54,71:5
54,72:5
54,80:7
55,19:2
55,22:2
55,23:2
55,24:2
55,25:1
55,26:5
55,27:4
55,28:3
55,29:4
55,31:4
55,32:4
55,33:1
55,34:1
55,36:3
55,38:5
55,39:5
55,40:5
55,41:6
55,42:6
55,43:6
55,44:5
55,45:6
55,46:6
55,47:6
55,48:4
55,49:6
55,50:5
55,51:5
55,52:6
55,53:6
55,70:6
55,80:2
56,19:2
56,22:2
56,23:2
56,24:2
56,25:1
56,26:5
56,27:4
56,28:3
56,29:4
56,31:4
56,32:4
56,33:1
56,34:1
56,36:3
56,38:5
56,39:5
56,40:5
56,41:6
56,42:6
56,43:6
56,44:5
56,45:6
56,46:6
56,47:6
56,48:4
56,49:6
56,50:5
56,51:5
56,52:6
56,53:6
56,70:6
56,80:2
57,19:2
57,22:2
57,23:2
57,24:2
57,25:1
57,26:5
57,27:4
57,28:3
57,29:4
57,31:4
57,32:4
57,33:1
57,34:1
57,36:3
57,38:5
57,39:5
57,40:5
57,41:6
57,42:6
57,43:6
57,44:5
57,45:6
57,46:6
57,47:6
57,48:4
57,49:6
57,50:5
57,51:5
57,52:6
57,53:6
57,58:5
57,59:5
57,60:6
57,62:3
57,64:3
57,65:3
57,66:5
57,70:6
57,80:2
58,19:3
58,22:7
58,23:7
58,24:7
58,25:4
58,26:10
58,27:1
58,28:8
58,29:1
58,31:1
58,32:1
58,33:6
58,34:6
58,35:5
58,36:2
58,37:5
58,40:10
58,41:1
58,42:1
58,43:11
58,44:10
58,45:11
58,46:11
58,47:11
58,48:1
58,49:11
58,50:10
58,51:10
58,52:1
58,53:1
58,59:10
58,60:1
58,61:5
58,62:2
58,63:5
58,64:2
58,65:2
58,66:10
58,67:5
58,68:5
58,69:5
58,70:1
58,71:5
58,72:5
58,80:3
59,19:7
59,22:3
59,23:3
59,24:3
59,25:6
59,27:9
59,28:2
59,29:9
59,31:9
59,32:9
59,33:4
59,34:4
59,35:5
59,36:8
59,37:5
59,38:10
59,39:10
59,41:11
59,42:11
59,43:1
59,45:1
59,46:1
59,47:1
59,48:9
59,49:1
59,52:11
59,53:11
59,58:10
59,60:11
59,61:5
59,62:8
59,63:5
59,64:8
59,65:8
59,67:5
59,68:5
59,69:5
59,70:11
59,71:5
59,72:5
59,80:7
60,19:4
60,22:8
60,23:8
60,24:8
60,25:5
60,26:11
60,27:2
60,28:9
60,29:2
60,31:2
60,32:2
60,33:7
60,34:7
60,35:6
60,36:3
60,37:6
60,38:1
60,39:1
60,40:11
60,43:12
60,44:11
60,45:12
60,46:12
60,47:12
60,48:2
60,49:12
60,50:11
60,51:11
60,58:1
60,59:11
60,61:6
60,62:3
60,63:6
60,64:3
60,65:3
60,66:11
60,67:6
60,68:6
60,69:6
60,71:6
60,72:6
60,80:4
61,19:2
61,22:2
61,23:2
61,24:2
61,25:1
61,26:5
61,27:4
61,28:3
61,29:4
61,31:4
61,32:4
61,33:1
61,34:1
61,36:3
61,38:5
61,39:5
61,40:5
61,41:6
61,42:6
61,43:6
61,44:5
61,45:6
61,46:6
61,47:6
61,48:4
61,49:6
61,50:5
61,51:5
61,52:6
61,53:6
61,58:5
61,59:5
61,60:6
61,62:3
61,64:3
61,65:3
61,66:5
61,70:6
61,80:2
62,19:1
62,22:5
62,23:5
62,24:5
62,25:2
62,26:8
62,27:1
62,28:6
62,29:1
62,31:1
62,32:1
62,33:4
62,34:4
62,35:3
62,37:3
62,38:2
62,39:2
62,40:8
62,41:3
62,42:3
62,43:9
62,44:8
62,45:9
62,46:9
62,47:9
62,48:1
62,49:9
62,50:8
62,51:8
62,52:3
62,53:3
62,58:2
62,59:8
62,60:3
62,61:3
62,63:3
62,66:8
62,67:3
62,68:3
62,69:3
62,70:3
62,71:3
62,72:3
62,80:1
63,19:2
63,22:2
63,23:2
63,24:2
63,25:1
63,26:5
63,27:4
63,28:3
63,29:4
63,31:4
63,32:4
63,33:1
63,34:1
63,36:3
63,38:5
63,39:5
63,40:5
63,41:6
63,42:6
63,43:6
63,44:5
63,45:6
63,46:6
63,47:6
63,48:4
63,49:6
63,50:5
63,51:5
63,52:6
63,53:6
63,58:5
63,59:5
63,60:6
63,62:3
63,64:3
63,65:3
63,66:5
63,70:6
63,80:2
64,19:1
64,22:5
64,23:5
64,24:5
64,25:2
64,26:8
64,27:1
64,28:6
64,29:1
64,31:1
64,32:1
64,33:4
64,34:4
64,35:3
64,37:3
64,38:2
64,39:2
64,40:8
64,41:3
64,42:3
64,43:9
64,44:8
64,45:9
64,46:9
64,47:9
64,48:1
64,49:9
64,50:8
64,51:8
64,52:3
64,53:3
64,58:2
64,59:8
64,60:3
64,61:3
64,63:3
64,66:8
64,67:3
64,68:3
64,69:3
64,70:3
64,71:3
64,72:3
64,80:1
65,19:1
65,22:5
65,23:5
65,24:5
65,25:2
65,26:8
65,27:1
65,28:6
65,29:1
65,31:1
65,32:1
65,33:4
65,34:4
65,35:3
65,37:3
65,38:2
65,39:2
65,40:8
65,41:3
65,42:3
65,43:9
65,44:8
65,45:9
65,46:9
65,47:9
65,48:1
65,49:9
65,50:8
65,51:8
65,52:3
65,53:3
65,58:2
65,59:8
65,60:3
65,61:3
65,63:3
65,66:8
65,67:3
65,68:3
65,69:3
65,70:3
65,71:3
65,72:3
65,80:1
66,19:7
66,22:3
66,23:3
66,24:3
66,25:6
66,27:9
66,28:2
66,29:9
66,31:9
66,32:9
66,33:4
66,34:4
66,35:5
66,36:8
66,37:5
66,38:10
66,39:10
66,41:11
66,42:11
66,43:1
66,45:1
66,46:1
66,47:1
66,48:9
66,49:1
66,52:11
66,53:11
66,58:10
66,60:11
66,61:5
66,62:8
66,63:5
66,64:8
66,65:8
66,67:5
66,68:5
66,69:5
66,70:11
66,71:5
66,72:5
66,80:7
67,19:2
67,22:2
67,23:2
67,24:2
67,25:1
67,26:5
67,27:4
67,28:3
67,29:4
67,31:4
67,32:4
67,33:1
67,34:1
67,36:3
67,38:5
67,39:5
67,40:5
67,41:6
67,42:6
67,43:6
67,44:5
67,45:6
67,46:6
67,47:6
67,48:4
67,49:6
67,50:5
67,51:5
67,52:6
67,53:6
67,70:6
67,73:2
67,80:2
68,16:3
68,21:2
68,30:2
68,48:4
68,54:5
68,58:5
68,59:5
68,60:6
68,62:3
68,64:3
68,65:3
68,66:5
68,70:6
68,73:2
68,74:2
68,75:5
68,76:5
68,77:5
69,16:3
69,21:2
69,30:2
69,48:4
69,54:5
69,58:5
69,59:5
69,60:6
69,62:3
69,64:3
69,65:3
69,66:5
69,70:6
69,73:2
69,74:2
69,75:5
69,76:5
69,77:5
70,16:3
70,21:4
70,30:8
70,48:2
70,54:11
70,55:6
70,56:6
70,57:6
70,58:1
70,59:11
70,61:6
70,62:3
70,63:6
70,64:3
70,65:3
70,66:11
70,67:6
70,68:6
70,69:6
70,71:6
70,72:6
70,73:4
70,74:4
70,75:1
70,76:1
70,77:1
71,16:3
71,21:2
71,30:2
71,48:4
71,54:5
71,58:5
71,59:5
71,60:6
71,62:3
71,64:3
71,65:3
71,66:5
71,70:6
71,73:2
71,80:2
72,16:3
72,21:2
72,30:2
72,48:4
72,54:5
72,58:5
72,59:5
72,60:6
72,62:3
72,64:3
72,65:3
72,66:5
72,73:2
72,74:2
72,75:5
72,76:5
72,77:5
72,78:5
72,80:2
73,48:2
73,68:2
73,69:2
73,70:4
73,72:2
74,48:2
74,68:2
74,69:2
74,70:4
74,72:2
74,75:3
74,76:3
75,48:1
75,68:5
75,69:5
75,70:1
75,72:5
75,80:3
76,48:1
76,68:5
76,69:5
76,70:1
76,72:5
76,80:3
77,48:1
77,68:5
77,69:5
77,70:1
77,72:5
77,80:3
78,48:1
78,80:3
79,48:1
79,80:3
80,16:1
80,30:4
80,48:2
80,54:7
80,55:2
80,56:2
80,57:2
80,58:3
80,59:7
80,60:4
80,61:2
80,62:1
80,63:2
80,64:1
80,65:1
80,66:7
80,67:2
80,71:2
80,75:3
80,76:3
80,77:3
80,78:3
80,79:3
80,81:3
81,48:1
81,84:8
82,48:1
82,84:8
83,48:1
83,84:8
83,86:8
84,48:7
84,82:8
84,83:8
84,85:8
85,48:1
85,84:8
85,86:8
86,48:7
86,87:7

<setup times backward>
1,30:3
2,30:3
3,30:3
4,30:3
5,1:5
5,2:5
5,3:5
5,4:5
5,7:5
5,8:3
5,9:7
5,13:7
5,30:8
6,1:5
6,2:5
6,3:5
6,4:5
6,7:5
6,8:3
6,9:7
6,10:7
6,30:8
7,9:2
7,10:2
7,30:3
8,1:2
8,2:2
8,3:2
8,4:2
8,7:2
8,9:4
8,10:4
8,13:4
8,14:4
8,30:5
9,30:1
10,30:1
11,1:5
11,2:5
11,3:5
11,4:5
11,7:5
11,8:3
11,9:7
11,10:7
11,30:8
12,1:5
12,2:5
12,3:5
12,4:5
12,7:5
12,8:3
12,9:7
12,10:7
12,30:8
13,30:1
14,30:1
15,1:2
15,2:2
15,3:2
15,4:2
15,7:2
15,9:4
15,10:4
15,13:4
15,14:4
15,30:5
16,1:2
16,2:2
16,3:2
16,4:2
16,7:2
16,9:4
16,10:4
16,13:4
16,14:4
16,18:1
16,19:1
16,20:1
16,21:1
16,22:5
16,23:5
16,24:5
16,25:2
16,26:8
16,28:6
16,30:5
16,33:4
16,34:4
16,35:3
16,37:3
16,40:8
16,43:9
16,44:8
16,45:9
16,46:9
16,47:9
16,49:9
16,50:8
16,51:8
16,68:3
16,69:3
16,71:3
16,72:3
16,80:1
17,1:2
17,2:2
17,3:2
17,4:2
17,7:2
17,9:4
17,10:4
17,13:4
17,14:4
17,30:5
18,1:1
18,2:1
18,3:1
18,4:1
18,7:1
18,9:3
18,10:3
18,13:3
18,14:3
18,30:4
19,1:1
19,2:1
19,3:1
19,4:1
19,7:1
19,9:3
19,10:3
19,13:3
19,14:3
19,28:5
19,30:4
19,54:7
19,55:2
19,56:2
19,57:2
19,59:7
19,61:2
19,63:2
19,66:7
19,67:2
20,1:1
20,2:1
20,3:1
20,4:1
20,7:1
20,9:3
20,10:3
20,13:3
20,14:3
20,22:4
20,23:4
20,24:4
20,25:1
20,26:7
20,30:4
21,1:1
21,2:1
21,3:1
21,4:1
21,7:1
21,9:3
21,10:3
21,13:3
21,14:3
21,22:4
21,23:4
21,24:4
21,25:1
21,26:7
21,28:5
21,30:4
21,33:3
21,34:3
21,35:2
21,37:2
21,40:7
21,43:8
21,44:7
21,45:8
21,46:8
21,47:8
21,49:8
21,50:7
21,51:7
21,68:2
21,69:2
21,71:2
21,72:2
22,28:1
22,54:3
22,59:3
22,66:3
23,28:1
23,54:3
23,59:3
23,66:3
24,28:1
24,54:3
24,59:3
24,66:3
25,9:2
25,10:2
25,13:2
25,14:2
25,22:3
25,23:3
25,24:3
25,28:4
25,30:3
25,54:6
25,55:1
25,56:1
25,57:1
25,59:6
25,61:1
25,63:1
25,66:6
25,67:1
27,1:3
27,2:3
27,3:3
27,4:3
27,7:3
27,8:1
27,9:5
27,10:5
27,13:5
27,14:5
27,15:1
27,16:1
27,17:1
27,18:2
27,19:2
27,20:2
27,21:2
27,22:6
27,23:6
27,24:6
27,25:3
27,26:9
27,28:7
27,30:6
27,54:9
27,55:4
27,56:4
27,57:4
27,59:9
27,61:4
27,62:1
27,63:4
27,64:1
27,65:1
27,66:9
27,67:4
28,26:2
28,54:2
28,59:2
28,66:2
29,1:3
29,2:3
29,3:3
29,4:3
29,7:3
29,8:1
29,9:5
29,10:5
29,13:5
29,14:5
29,15:1
29,16:1
29,17:1
29,18:2
29,19:2
29,20:2
29,21:2
29,22:6
29,23:6
29,24:6
29,25:3
29,26:9
29,28:7
29,30:6
29,54:9
29,55:4
29,56:4
29,57:4
29,59:9
29,61:4
29,62:1
29,63:4
29,64:1
29,65:1
29,66:9
29,67:4
30,26:3
30,28:1
30,40:3
30,43:4
30,44:3
30,45:4
30,46:4
30,47:4
30,49:4
30,50:3
30,51:3
31,1:3
31,2:3
31,3:3
31,4:3
31,7:3
31,8:1
31,9:5
31,10:5
31,13:5
31,14:5
31,15:1
31,16:1
31,17:1
31,18:2
31,19:2
31,20:2
31,21:2
31,22:6
31,23:6
31,24:6
31,25:3
31,26:9
31,28:7
31,30:6
31,54:9
31,55:4
31,56:4
31,57:4
31,59:9
31,61:4
31,62:1
31,63:4
31,64:1
31,65:1
31,66:9
31,67:4
32,1:3
32,2:3
32,3:3
32,4:3
32,7:3
32,8:1
32,9:5
32,10:5
32,13:5
32,14:5
32,15:1
32,16:1
32,17:1
32,18:2
32,19:2
32,20:2
32,21:2
32,22:6
32,23:6
32,24:6
32,25:3
32,26:9
32,28:7
32,30:6
32,54:9
32,55:4
32,56:4
32,57:4
32,59:9
32,61:4
32,62:1
32,63:4
32,64:1
32,65:1
32,66:9
32,67:4
33,22:1
33,23:1
33,24:1
33,26:4
33,28:2
33,30:1
33,54:4
33,59:4
33,66:4
34,22:1
34,23:1
34,24:1
34,26:4
34,28:2
34,30:1
34,54:4
34,59:4
34,66:4
35,9:1
35,10:1
35,13:1
35,14:1
35,22:2
35,23:2
35,24:2
35,26:5
35,28:3
35,30:2
35,33:1
35,34:1
35,54:5
35,59:5
35,66:5
36,1:2
36,2:2
36,3:2
36,4:2
36,7:2
36,9:4
36,10:4
36,13:4
36,14:4
36,18:1
36,19:1
36,20:1
36,21:1
36,22:5
36,23:5
36,24:5
36,25:2
36,26:8
36,28:6
36,30:5
36,33:4
36,34:4
36,35:3
36,37:3
36,54:8
36,55:3
36,56:3
36,57:3
36,59:8
36,61:3
36,63:3
36,66:8
36,67:3
37,9:1
37,10:1
37,13:1
37,14:1
37,22:2
37,23:2
37,24:2
37,26:5
37,28:3
37,30:2
37,33:1
37,34:1
37,54:5
37,59:5
37,66:5
38,1:4
38,2:4
38,3:4
38,4:4
38,7:4
38,8:2
38,9:6
38,10:6
38,13:6
38,14:6
38,15:2
38,16:2
38,17:2
38,18:3
38,19:3
38,20:3
38,21:3
38,22:7
38,23:7
38,24:7
38,25:4
38,26:10
38,27:1
38,28:8
38,29:1
38,30:7
38,31:1
38,32:1
38,33:6
38,34:6
38,35:5
38,36:2
38,37:5
38,54:10
38,55:5
38,56:5
38,57:5
38,59:10
38,61:5
38,62:2
38,63:5
38,64:2
38,65:2
38,66:10
38,67:5
39,1:4
39,2:4
39,3:4
39,4:4
39,7:4
39,8:2
39,9:6
39,10:6
39,13:6
39,14:6
39,15:2
39,16:2
39,17:2
39,18:3
39,19:3
39,20:3
39,21:3
39,22:7
39,23:7
39,24:7
39,25:4
39,26:10
39,27:1
39,28:8
39,29:1
39,30:7
39,31:1
39,32:1
39,33:6
39,34:6
39,35:5
39,36:2
39,37:5
39,54:10
39,55:5
39,56:5
39,57:5
39,59:10
39,61:5
39,62:2
39,63:5
39,64:2
39,65:2
39,66:10
39,67:5
40,43:1
40,45:1
40,46:1
40,47:1
40,49:1
41,1:5
41,2:5
41,3:5
41,4:5
41,7:5
41,8:3
41,9:7
41,10:7
41,13:7
41,14:7
41,15:3
41,16:3
41,17:3
41,18:4
41,19:4
41,20:4
41,21:4
41,22:8
41,23:8
41,24:8
41,25:5
41,26:11
41,27:2
41,28:9
41,29:2
41,30:8
41,31:2
41,32:2
41,33:7
41,34:7
41,35:6
41,36:3
41,37:6
41,38:1
41,39:1
41,40:11
41,43:12
41,44:11
41,45:12
41,46:12
41,47:12
41,48:2
41,49:12
41,50:11
41,51:11
41,54:11
41,55:6
41,56:6
41,57:6
41,58:1
41,59:11
41,61:6
41,62:3
41,63:6
41,64:3
41,65:3
41,66:11
41,67:6
42,1:5
42,2:5
42,3:5
42,4:5
42,7:5
42,8:3
42,9:7
42,10:7
42,13:7
42,14:7
42,15:3
42,16:3
42,17:3
42,18:4
42,19:4
42,20:4
42,21:4
42,22:8
42,23:8
42,24:8
42,25:5
42,26:11
42,27:2
42,28:9
42,29:2
42,30:8
42,31:2
42,32:2
42,33:7
42,34:7
42,35:6
42,36:3
42,37:6
42,38:1
42,39:1
42,40:11
42,43:12
42,44:11
42,45:12
42,46:12
42,47:12
42,48:2
42,49:12
42,50:11
42,51:11
42,54:11
42,55:6
42,56:6
42,57:6
42,58:1
42,59:11
42,61:6
42,62:3
42,63:6
42,64:3
42,65:3
42,66:11
42,67:6
44,43:1
44,45:1
44,46:1
44,47:1
44,49:1
48,1:3
48,2:3
48,3:3
48,4:3
48,7:3
48,8:1
48,9:5
48,10:5
48,13:5
48,14:5
48,15:1
48,16:1
48,17:1
48,18:2
48,19:2
48,20:2
48,21:2
48,22:6
48,23:6
48,24:6
48,25:3
48,26:9
48,28:7
48,30:6
48,33:5
48,34:5
48,35:4
48,36:1
48,37:4
48,40:9
48,43:10
48,44:9
48,45:10
48,46:10
48,47:10
48,49:10
48,50:9
48,51:9
48,54:9
48,55:4
48,56:4
48,57:4
48,59:9
48,61:4
48,62:1
48,63:4
48,64:1
48,65:1
48,66:9
48,67:4
48,68:4
48,69:4
48,71:4
48,72:4
48,73:2
48,74:2
48,80:2
48,84:7
48,86:7
50,43:1
50,45:1
50,46:1
50,47:1
50,49:1
51,43:1
51,45:1
51,46:1
51,47:1
51,49:1
52,1:5
52,2:5
52,3:5
52,4:5
52,7:5
52,8:3
52,9:7
52,10:7
52,13:7
52,14:7
52,15:3
52,16:3
52,17:3
52,18:4
52,19:4
52,20:4
52,21:4
52,22:8
52,23:8
52,24:8
52,25:5
52,26:11
52,27:2
52,28:9
52,29:2
52,30:8
52,31:2
52,32:2
52,33:7
52,34:7
52,35:6
52,36:3
52,37:6
52,38:1
52,39:1
52,40:11
52,43:12
52,44:11
52,45:12
52,46:12
52,47:12
52,48:2
52,49:12
52,50:11
52,51:11
52,54:11
52,55:6
52,56:6
52,57:6
52,58:1
52,59:11
52,61:6
52,62:3
52,63:6
52,64:3
52,65:3
52,66:11
52,67:6
53,1:5
53,2:5
53,3:5
53,4:5
53,7:5
53,8:3
53,9:7
53,10:7
53,13:7
53,14:7
53,15:3
53,16:3
53,17:3
53,18:4
53,19:4
53,20:4
53,21:4
53,22:8
53,23:8
53,24:8
53,25:5
53,26:11
53,27:2
53,28:9
53,29:2
53,30:8
53,31:2
53,32:2
53,33:7
53,34:7
53,35:6
53,36:3
53,37:6
53,38:1
53,39:1
53,40:11
53,43:12
53,44:11
53,45:12
53,46:12
53,47:12
53,48:2
53,49:12
53,50:11
53,51:11
53,54:11
53,55:6
53,56:6
53,57:6
53,58:1
53,59:11
53,61:6
53,62:3
53,63:6
53,64:3
53,65:3
53,66:11
53,67:6
54,43:1
54,45:1
54,46:1
54,47:1
54,49:1
55,9:1
55,10:1
55,13:1
55,14:1
55,22:2
55,23:2
55,24:2
55,26:5
55,28:3
55,30:2
55,33:1
55,34:1
55,40:5
55,43:6
55,44:5
55,45:6
55,46:6
55,47:6
55,49:6
55,50:5
55,51:5
55,54:5
56,9:1
56,10:1
56,13:1
56,14:1
56,22:2
56,23:2
56,24:2
56,26:5
56,28:3
56,30:2
56,33:1
56,34:1
56,40:5
56,43:6
56,44:5
56,45:6
56,46:6
56,47:6
56,49:6
56,50:5
56,51:5
56,54:5
57,9:1
57,10:1
57,13:1
57,14:1
57,22:2
57,23:2
57,24:2
57,26:5
57,28:3
57,30:2
57,33:1
57,34:1
57,40:5
57,43:6
57,44:5
57,45:6
57,46:6
57,47:6
57,49:6
57,50:5
57,51:5
57,54:5
58,1:4
58,2:4
58,3:4
58,4:4
58,7:4
58,8:2
58,9:6
58,10:6
58,13:6
58,14:6
58,15:2
58,16:2
58,17:2
58,18:3
58,19:3
58,20:3
58,21:3
58,22:7
58,23:7
58,24:7
58,25:4
58,26:10
58,27:1
58,28:8
58,29:1
58,30:7
58,31:1
58,32:1
58,33:6
58,34:6
58,35:5
58,36:2
58,37:5
58,40:10
58,43:11
58,44:10
58,45:11
58,46:11
58,47:11
58,48:1
58,49:11
58,50:10
58,51:10
58,54:10
58,55:5
58,56:5
58,57:5
58,59:10
58,61:5
58,62:2
58,63:5
58,64:2
58,65:2
58,66:10
58,68:5
58,69:5
58,71:5
58,72:5
58,80:3
59,43:1
59,45:1
59,46:1
59,47:1
59,49:1
60,1:5
60,2:5
60,3:5
60,4:5
60,7:5
60,8:3
60,9:7
60,10:7
60,13:7
60,14:7
60,15:3
60,16:3
60,17:3
60,18:4
60,19:4
60,20:4
60,21:4
60,22:8
60,23:8
60,24:8
60,25:5
60,26:11
60,27:2
60,28:9
60,29:2
60,30:8
60,31:2
60,32:2
60,33:7
60,34:7
60,35:6
60,36:3
60,37:6
60,38:1
60,39:1
60,40:11
60,43:12
60,44:11
60,45:12
60,46:12
60,47:12
60,48:2
60,49:12
60,50:11
60,51:11
60,54:11
60,55:6
60,56:6
60,57:6
60,58:1
60,59:11
60,61:6
60,62:3
60,63:6
60,64:3
60,65:3
60,66:11
60,68:6
60,69:6
60,71:6
60,72:6
60,80:4
61,9:1
61,10:1
61,13:1
61,14:1
61,22:2
61,23:2
61,24:2
61,26:5
61,28:3
61,30:2
61,33:1
61,34:1
61,40:5
61,43:6
61,44:5
61,45:6
61,46:6
61,47:6
61,49:6
61,50:5
61,51:5
61,54:5
61,59:5
61,66:5
62,1:2
62,2:2
62,3:2
62,4:2
62,7:2
62,9:4
62,10:4
62,13:4
62,14:4
62,18:1
62,19:1
62,20:1
62,21:1
62,22:5
62,23:5
62,24:5
62,25:2
62,26:8
62,28:6
62,30:5
62,33:4
62,34:4
62,35:3
62,37:3
62,40:8
62,43:9
62,44:8
62,45:9
62,46:9
62,47:9
62,49:9
62,50:8
62,51:8
62,54:8
62,55:3
62,56:3
62,57:3
62,59:8
62,61:3
62,63:3
62,66:8
62,68:3
62,69:3
62,71:3
62,72:3
62,80:1
63,9:1
63,10:1
63,13:1
63,14:1
63,22:2
63,23:2
63,24:2
63,26:5
63,28:3
63,30:2
63,33:1
63,34:1
63,40:5
63,43:6
63,44:5
63,45:6
63,46:6
63,47:6
63,49:6
63,50:5
63,51:5
63,54:5
63,59:5
63,66:5
64,1:2
64,2:2
64,3:2
64,4:2
64,7:2
64,9:4
64,10:4
64,13:4
64,14:4
64,18:1
64,19:1
64,20:1
64,21:1
64,22:5
64,23:5
64,24:5
64,25:2
64,26:8
64,28:6
64,30:5
64,33:4
64,34:4
64,35:3
64,37:3
64,40:8
64,43:9
64,44:8
64,45:9
64,46:9
64,47:9
64,49:9
64,50:8
64,51:8
64,54:8
64,55:3
64,56:3
64,57:3
64,59:8
64,61:3
64,63:3
64,66:8
64,68:3
64,69:3
64,71:3
64,72:3
64,80:1
65,1:2
65,2:2
65,3:2
65,4:2
65,7:2
65,9:4
65,10:4
65,13:4
65,14:4
65,18:1
65,19:1
65,20:1
65,21:1
65,22:5
65,23:5
65,24:5
65,25:2
65,26:8
65,28:6
65,30:5
65,33:4
65,34:4
65,35:3
65,37:3
65,40:8
65,43:9
65,44:8
65,45:9
65,46:9
65,47:9
65,49:9
65,50:8
65,51:8
65,54:8
65,55:3
65,56:3
65,57:3
65,59:8
65,61:3
65,63:3
65,66:8
65,68:3
65,69:3
65,71:3
65,72:3
65,80:1
66,43:1
66,45:1
66,46:1
66,47:1
66,49:1
67,9:1
67,10:1
67,13:1
67,14:1
67,22:2
67,23:2
67,24:2
67,26:5
67,28:3
67,30:2
67,33:1
67,34:1
67,40:5
67,43:6
67,44:5
67,45:6
67,46:6
67,47:6
67,49:6
67,50:5
67,51:5
67,54:5
67,59:5
67,66:5
68,9:1
68,10:1
68,13:1
68,14:1
68,22:2
68,23:2
68,24:2
68,26:5
68,28:3
68,30:2
68,33:1
68,34:1
68,40:5
68,43:6
68,44:5
68,45:6
68,46:6
68,47:6
68,49:6
68,50:5
68,51:5
68,54:5
68,59:5
68,66:5
69,9:1
69,10:1
69,13:1
69,14:1
69,22:2
69,23:2
69,24:2
69,26:5
69,28:3
69,30:2
69,33:1
69,34:1
69,40:5
69,43:6
69,44:5
69,45:6
69,46:6
69,47:6
69,49:6
69,50:5
69,51:5
69,54:5
69,59:5
69,66:5
70,1:5
70,2:5
70,3:5
70,4:5
70,7:5
70,8:3
70,9:7
70,10:7
70,13:7
70,14:7
70,15:3
70,16:3
70,17:3
70,18:4
70,19:4
70,20:4
70,21:4
70,22:8
70,23:8
70,24:8
70,25:5
70,26:11
70,27:2
70,28:9
70,29:2
70,30:8
70,31:2
70,32:2
70,33:7
70,34:7
70,35:6
70,36:3
70,37:6
70,38:1
70,39:1
70,40:11
70,43:12
70,44:11
70,45:12
70,46:12
70,47:12
70,48:2
70,49:12
70,50:11
70,51:11
70,54:11
70,55:6
70,56:6
70,57:6
70,58:1
70,59:11
70,61:6
70,62:3
70,63:6
70,64:3
70,65:3
70,66:11
70,67:6
70,68:6
70,69:6
70,71:6
70,73:4
70,74:4
70,75:1
70,76:1
70,77:1
71,9:1
71,10:1
71,13:1
71,14:1
71,22:2
71,23:2
71,24:2
71,26:5
71,28:3
71,30:2
71,33:1
71,34:1
71,40:5
71,43:6
71,44:5
71,45:6
71,46:6
71,47:6
71,49:6
71,50:5
71,51:5
71,54:5
71,59:5
71,66:5
72,9:1
72,10:1
72,13:1
72,14:1
72,22:2
72,23:2
72,24:2
72,26:5
72,28:3
72,30:2
72,33:1
72,34:1
72,40:5
72,43:6
72,44:5
72,45:6
72,46:6
72,47:6
72,49:6
72,50:5
72,51:5
72,54:5
72,59:5
72,66:5
73,1:1
73,2:1
73,3:1
73,4:1
73,7:1
73,9:3
73,10:3
73,13:3
73,14:3
73,22:4
73,23:4
73,24:4
73,25:1
73,26:7
73,28:5
73,30:4
73,33:3
73,34:3
73,35:2
73,37:2
73,40:7
73,43:8
73,44:7
73,45:8
73,46:8
73,47:8
73,49:8
73,50:7
73,51:7
73,54:7
73,55:2
73,56:2
73,57:2
73,59:7
73,61:2
73,63:2
73,66:7
73,67:2
73,68:2
73,69:2
73,71:2
73,72:2
74,1:1
74,2:1
74,3:1
74,4:1
74,7:1
74,9:3
74,10:3
74,13:3
74,14:3
74,22:4
74,23:4
74,24:4
74,25:1
74,26:7
74,28:5
74,30:4
74,33:3
74,34:3
74,35:2
74,37:2
74,40:7
74,43:8
74,44:7
74,45:8
74,46:8
74,47:8
74,49:8
74,50:7
74,51:7
74,54:7
74,55:2
74,56:2
74,57:2
74,59:7
74,61:2
74,63:2
74,66:7
74,67:2
74,68:2
74,69:2
74,71:2
74,72:2
75,1:4
75,2:4
75,3:4
75,4:4
75,7:4
75,8:2
75,9:6
75,10:6
75,13:6
75,14:6
75,15:2
75,16:2
75,17:2
75,18:3
75,19:3
75,20:3
75,21:3
75,22:7
75,23:7
75,24:7
75,25:4
75,26:10
75,27:1
75,28:8
75,29:1
75,30:7
75,31:1
75,32:1
75,33:6
75,34:6
75,35:5
75,36:2
75,37:5
75,40:10
75,43:11
75,44:10
75,45:11
75,46:11
75,47:11
75,48:1
75,49:11
75,50:10
75,51:10
75,54:10
75,55:5
75,56:5
75,57:5
75,59:10
75,61:5
75,62:2
75,63:5
75,64:2
75,65:2
75,66:10
75,67:5
75,68:5
75,69:5
75,71:5
75,72:5
75,73:3
75,74:3
75,80:3
76,1:4
76,2:4
76,3:4
76,4:4
76,7:4
76,8:2
76,9:6
76,10:6
76,13:6
76,14:6
76,15:2
76,16:2
76,17:2
76,18:3
76,19:3
76,20:3
76,21:3
76,22:7
76,23:7
76,24:7
76,25:4
76,26:10
76,27:1
76,28:8
76,29:1
76,30:7
76,31:1
76,32:1
76,33:6
76,34:6
76,35:5
76,36:2
76,37:5
76,40:10
76,43:11
76,44:10
76,45:11
76,46:11
76,47:11
76,48:1
76,49:11
76,50:10
76,51:10
76,54:10
76,55:5
76,56:5
76,57:5
76,59:10
76,61:5
76,62:2
76,63:5
76,64:2
76,65:2
76,66:10
76,67:5
76,68:5
76,69:5
76,71:5
76,72:5
76,73:3
76,74:3
76,80:3
77,1:4
77,2:4
77,3:4
77,4:4
77,7:4
77,8:2
77,9:6
77,10:6
77,13:6
77,14:6
77,15:2
77,16:2
77,17:2
77,18:3
77,19:3
77,20:3
77,21:3
77,22:7
77,23:7
77,24:7
77,25:4
77,26:10
77,27:1
77,28:8
77,29:1
77,30:7
77,31:1
77,32:1
77,33:6
77,34:6
77,35:5
77,36:2
77,37:5
77,40:10
77,43:11
77,44:10
77,45:11
77,46:11
77,47:11
77,48:1
77,49:11
77,50:10
77,51:10
77,54:10
77,55:5
77,56:5
77,57:5
77,59:10
77,61:5
77,62:2
77,63:5
77,64:2
77,65:2
77,66:10
77,67:5
77,68:5
77,69:5
77,71:5
77,72:5
77,73:3
77,74:3
77,80:3
78,1:4
78,2:4
78,3:4
78,4:4
78,7:4
78,8:2
78,9:6
78,10:6
78,13:6
78,14:6
78,15:2
78,16:2
78,17:2
78,18:3
78,19:3
78,20:3
78,21:3
78,22:7
78,23:7
78,24:7
78,25:4
78,26:10
78,27:1
78,28:8
78,29:1
78,30:7
78,31:1
78,32:1
78,33:6
78,34:6
78,35:5
78,36:2
78,37:5
78,40:10
78,43:11
78,44:10
78,45:11
78,46:11
78,47:11
78,48:1
78,49:11
78,50:10
78,51:10
78,54:10
78,55:5
78,56:5
78,57:5
78,59:10
78,61:5
78,62:2
78,63:5
78,64:2
78,65:2
78,66:10
78,67:5
78,68:5
78,69:5
78,71:5
78,72:5
78,73:3
78,74:3
78,80:3
79,1:4
79,2:4
79,3:4
79,4:4
79,7:4
79,8:2
79,9:6
79,10:6
79,13:6
79,14:6
79,15:2
79,16:2
79,17:2
79,18:3
79,19:3
79,20:3
79,21:3
79,22:7
79,23:7
79,24:7
79,25:4
79,26:10
79,27:1
79,28:8
79,29:1
79,30:7
79,31:1
79,32:1
79,33:6
79,34:6
79,35:5
79,36:2
79,37:5
79,40:10
79,43:11
79,44:10
79,45:11
79,46:11
79,47:11
79,48:1
79,49:11
79,50:10
79,51:10
79,54:10
79,55:5
79,56:5
79,57:5
79,59:10
79,61:5
79,62:2
79,63:5
79,64:2
79,65:2
79,66:10
79,67:5
79,68:5
79,69:5
79,71:5
79,72:5
79,73:3
79,74:3
79,80:3
80,1:1
80,2:1
80,3:1
80,4:1
80,7:1
80,9:3
80,10:3
80,13:3
80,14:3
80,22:4
80,23:4
80,24:4
80,25:1
80,26:7
80,28:5
80,30:4
80,33:3
80,34:3
80,35:2
80,37:2
80,40:7
80,43:8
80,44:7
80,45:8
80,46:8
80,47:8
80,49:8
80,50:7
80,51:7
80,54:7
80,55:2
80,56:2
80,57:2
80,59:7
80,61:2
80,63:2
80,66:7
80,67:2
80,68:2
80,69:2
80,71:2
80,72:2
81,1:4
81,2:4
81,3:4
81,4:4
81,7:4
81,8:2
81,9:6
81,10:6
81,13:6
81,14:6
81,15:2
81,16:2
81,17:2
81,18:3
81,19:3
81,20:3
81,21:3
81,22:7
81,23:7
81,24:7
81,25:4
81,26:10
81,27:1
81,28:8
81,29:1
81,30:7
81,31:1
81,32:1
81,33:6
81,34:6
81,35:5
81,36:2
81,37:5
81,40:10
81,43:11
81,44:10
81,45:11
81,46:11
81,47:11
81,48:1
81,49:11
81,50:10
81,51:10
81,54:10
81,55:5
81,56:5
81,57:5
81,59:10
81,61:5
81,62:2
81,63:5
81,64:2
81,65:2
81,66:10
81,67:5
81,68:5
81,69:5
81,71:5
81,72:5
81,73:3
81,74:3
81,80:3
82,1:4
82,2:4
82,3:4
82,4:4
82,7:4
82,8:2
82,9:6
82,10:6
82,13:6
82,14:6
82,15:2
82,16:2
82,17:2
82,18:3
82,19:3
82,20:3
82,21:3
82,22:7
82,23:7
82,24:7
82,25:4
82,26:10
82,27:1
82,28:8
82,29:1
82,30:7
82,31:1
82,32:1
82,33:6
82,34:6
82,35:5
82,36:2
82,37:5
82,40:10
82,43:11
82,44:10
82,45:11
82,46:11
82,47:11
82,48:1
82,49:11
82,50:10
82,51:10
82,54:10
82,55:5
82,56:5
82,57:5
82,59:10
82,61:5
82,62:2
82,63:5
82,64:2
82,65:2
82,66:10
82,67:5
82,68:5
82,69:5
82,71:5
82,72:5
82,73:3
82,74:3
82,80:3
82,84:8
83,1:4
83,2:4
83,3:4
83,4:4
83,7:4
83,8:2
83,9:6
83,10:6
83,13:6
83,14:6
83,15:2
83,16:2
83,17:2
83,18:3
83,19:3
83,20:3
83,21:3
83,22:7
83,23:7
83,24:7
83,25:4
83,26:10
83,27:1
83,28:8
83,29:1
83,30:7
83,31:1
83,32:1
83,33:6
83,34:6
83,35:5
83,36:2
83,37:5
83,40:10
83,43:11
83,44:10
83,45:11
83,46:11
83,47:11
83,48:1
83,49:11
83,50:10
83,51:10
83,54:10
83,55:5
83,56:5
83,57:5
83,59:10
83,61:5
83,62:2
83,63:5
83,64:2
83,65:2
83,66:10
83,67:5
83,68:5
83,69:5
83,71:5
83,72:5
83,73:3
83,74:3
83,80:3
83,84:8
84,26:2
84,40:2
84,43:3
84,44:2
84,45:3
84,46:3
84,47:3
84,49:3
84,50:2
84,51:2
84,54:2
84,59:2
84,66:2
85,1:4
85,2:4
85,3:4
85,4:4
85,7:4
85,8:2
85,9:6
85,10:6
85,13:6
85,14:6
85,15:2
85,16:2
85,17:2
85,18:3
85,19:3
85,20:3
85,21:3
85,22:7
85,23:7
85,24:7
85,25:4
85,26:10
85,27:1
85,28:8
85,29:1
85,30:7
85,31:1
85,32:1
85,33:6
85,34:6
85,35:5
85,36:2
85,37:5
85,40:10
85,43:11
85,44:10
85,45:11
85,46:11
85,47:11
85,48:1
85,49:11
85,50:10
85,51:10
85,54:10
85,55:5
85,56:5
85,57:5
85,59:10
85,61:5
85,62:2
85,63:5
85,64:2
85,65:2
85,66:10
85,67:5
85,68:5
85,69:5
85,71:5
85,72:5
85,73:3
85,74:3
85,80:3
85,84:8
86,26:2
86,40:2
86,43:3
86,44:2
86,45:3
86,46:3
86,47:3
86,49:3
86,50:2
86,51:2
86,54:2
86,59:2
86,66:2
87,1:3
87,2:3
87,3:3
87,4:3
87,7:3
87,8:1
87,9:5
87,10:5
87,13:5
87,14:5
87,15:1
87,16:1
87,17:1
87,18:2
87,19:2
87,20:2
87,21:2
87,22:6
87,23:6
87,24:6
87,25:3
87,26:9
87,28:7
87,30:6
87,33:5
87,34:5
87,35:4
87,36:1
87,37:4
87,40:9
87,43:10
87,44:9
87,45:10
87,46:10
87,47:10
87,49:10
87,50:9
87,51:9
87,54:9
87,55:4
87,56:4
87,57:4
87,59:9
87,61:4
87,62:1
87,63:4
87,64:1
87,65:1
87,66:9
87,67:4
87,68:4
87,69:4
87,71:4
87,72:4
87,73:2
87,74:2
87,80:2
87,84:7
87,86:7
88,1:3
88,2:3
88,3:3
88,4:3
88,7:3
88,8:1
88,9:5
88,10:5
88,13:5
88,14:5
88,15:1
88,16:1
88,17:1
88,18:2
88,19:2
88,20:2
88,21:2
88,22:6
88,23:6
88,24:6
88,25:3
88,26:9
88,28:7
88,30:6
88,33:5
88,34:5
88,35:4
88,36:1
88,37:4
88,40:9
88,43:10
88,44:9
88,45:10
88,46:10
88,47:10
88,49:10
88,50:9
88,51:9
88,54:9
88,55:4
88,56:4
88,57:4
88,59:9
88,61:4
88,62:1
88,63:4
88,64:1
88,65:1
88,66:9
88,67:4
88,68:4
88,69:4
88,71:4
88,72:4
88,73:2
88,74:2
88,80:2
88,84:7
88,86:7
89,1:3
89,2:3
89,3:3
89,4:3
89,7:3
89,8:1
89,9:5
89,10:5
89,13:5
89,14:5
89,15:1
89,16:1
89,17:1
89,18:2
89,19:2
89,20:2
89,21:2
89,22:6
89,23:6
89,24:6
89,25:3
89,26:9
89,28:7
89,30:6
89,33:5
89,34:5
89,35:4
89,36:1
89,37:4
89,40:9
89,43:10
89,44:9
89,45:10
89,46:10
89,47:10
89,49:10
89,50:9
89,51:9
89,54:9
89,55:4
89,56:4
89,57:4
89,59:9
89,61:4
89,62:1
89,63:4
89,64:1
89,65:1
89,66:9
89,67:4
89,68:4
89,69:4
89,71:4
89,72:4
89,73:2
89,74:2
89,80:2
89,84:7
89,86:7

<end>

<optimal SALBP-1 value>
23


<rand seed>
467321153

<Lower Bounds>
Lm1=22
Lms1=22
Lm2=8
Lm3=12
Lm4=23
Best=23

<Optimal Stations (Iterations: 10)>
28
